SECTION Graph
Nodes 467
Edges 896
E 1 430 2
E 1 433 1
E 2 3 1
E 2 435 3
E 2 436 2
E 3 437 2
E 4 5 10
E 4 422 4
E 4 425 2
E 4 431 3
E 5 434 4
E 5 435 2
E 5 436 3
E 6 432 5
E 6 434 2
E 6 435 4
E 7 402 2
E 7 405 1
E 7 412 2
E 7 421 10
E 8 9 1
E 8 417 3
E 8 418 2
E 9 420 2
E 9 424 1
E 10 11 10
E 10 395 4
E 10 397 2
E 10 403 3
E 11 409 4
E 11 417 2
E 11 418 3
E 12 404 5
E 12 409 2
E 12 417 4
E 13 374 2
E 13 378 1
E 13 386 6
E 13 394 10
E 14 15 1
E 14 389 3
E 14 390 2
E 15 393 2
E 15 396 1
E 16 364 2
E 16 368 1
E 16 375 3
E 16 384 10
E 17 18 2
E 17 381 2
E 18 382 2
E 18 389 1
E 19 391 15
E 19 411 2
E 19 416 2
E 19 419 5
E 20 416 10
E 20 427 2
E 20 432 2
E 20 434 5
E 21 340 24
E 21 374 6
E 21 386 2
E 21 392 5
E 22 386 10
E 22 394 6
E 22 404 2
E 22 409 5
E 23 25 3
E 23 301 29
E 23 354 1
E 23 355 2
E 24 357 10
E 24 379 1
E 24 381 2
E 25 348 2
E 26 348 10
E 26 379 3
E 27 335 8
E 27 336 7
E 27 351 1
E 27 360 6
E 28 360 5
E 28 369 1
E 28 373 1
E 28 385 9
E 29 334 13
E 29 339 11
E 29 360 1
E 29 369 5
E 30 351 6
E 30 360 1
E 30 367 1
E 30 373 5
E 31 100 23
E 31 316 1
E 31 322 1
E 31 329 5
E 32 329 6
E 32 336 1
E 32 350 7
E 32 351 7
E 33 316 5
E 33 325 1
E 33 329 1
E 33 336 6
E 34 322 5
E 34 329 1
E 34 345 10
E 34 353 13
E 35 98 1
E 35 197 2
E 35 204 1
E 35 224 9
E 36 224 6
E 36 235 1
E 36 260 11
E 37 221 2
E 38 99 1
E 38 207 9
E 38 226 1
E 38 238 6
E 39 40 1
E 39 239 1
E 39 249 1
E 40 252 1
E 41 46 13
E 41 100 1
E 41 269 1
E 41 316 23
E 42 100 1
E 42 277 1
E 42 322 23
E 43 44 1
E 43 208 1
E 43 213 1
E 44 215 1
E 44 239 13
E 45 231 2
E 45 234 1
E 45 241 1
E 45 246 2
E 46 240 1
E 46 241 1
E 46 253 2
E 47 48 1
E 47 272 1
E 47 299 12
E 48 50 12
E 49 272 12
E 49 277 11
E 49 299 1
E 49 341 24
E 50 299 1
E 50 344 24
E 51 180 2
E 51 181 1
E 51 184 1
E 51 198 10
E 52 184 10
E 52 198 1
E 52 202 1
E 52 209 3
E 53 54 10
E 53 178 1
E 54 192 1
E 54 195 3
E 55 63 1
E 55 101 1
E 55 171 1
E 55 174 9
E 56 64 1
E 56 101 1
E 56 173 2
E 56 176 9
E 57 102 1
E 57 174 6
E 57 177 1
E 57 182 5
E 58 102 1
E 58 176 6
E 58 185 5
E 59 171 9
E 59 174 1
E 59 177 6
E 60 173 9
E 60 176 2
E 60 188 11
E 61 69 5
E 61 103 1
E 61 165 1
E 61 167 6
E 62 70 5
E 62 103 1
E 62 166 2
E 62 169 6
E 63 104 1
E 63 167 9
E 63 170 1
E 64 104 1
E 64 169 9
E 64 172 2
E 65 165 6
E 65 167 1
E 65 170 9
E 66 166 6
E 66 169 2
E 66 172 9
E 67 74 1
E 67 105 1
E 67 157 1
E 67 160 9
E 68 75 1
E 68 105 1
E 68 159 2
E 68 162 9
E 69 106 1
E 69 160 6
E 69 163 1
E 70 106 1
E 70 162 6
E 70 164 2
E 71 157 9
E 71 160 1
E 71 163 6
E 72 159 9
E 72 162 2
E 72 164 6
E 73 107 1
E 73 143 18
E 73 152 2
E 73 155 6
E 74 108 1
E 74 153 9
E 74 156 1
E 75 108 1
E 75 155 9
E 75 158 2
E 76 139 24
E 76 153 1
E 76 156 9
E 77 152 6
E 77 155 2
E 77 158 9
E 78 138 5
E 78 143 2
E 78 144 1
E 78 150 12
E 79 144 12
E 79 150 1
E 80 123 6
E 80 127 1
E 81 127 12
E 81 140 4
E 82 87 13
E 82 131 1
E 82 132 1
E 83 131 1
E 83 134 1
E 84 85 1
E 84 146 1
E 84 147 1
E 85 148 1
E 86 113 1
E 86 114 1
E 87 113 1
E 87 116 1
E 88 89 1
E 88 128 1
E 88 129 1
E 89 130 1
E 89 147 13
E 90 134 11
E 90 149 2
E 91 92 1
E 91 151 1
E 93 109 1
E 93 110 7
E 93 112 10
E 94 96 5
E 94 109 10
E 94 112 1
E 94 142 24
E 95 96 10
E 95 109 5
E 96 139 27
E 97 413 180
E 98 195 2
E 98 221 9
E 99 204 9
E 99 224 1
E 99 235 6
E 100 273 1
E 101 104 1
E 101 175 9
E 102 175 6
E 102 183 5
E 103 106 5
E 103 168 6
E 104 168 9
E 105 108 1
E 105 161 9
E 106 161 6
E 107 142 18
E 107 154 6
E 108 154 9
E 110 111 1
E 110 120 10
E 111 117 6
E 111 121 10
E 112 120 7
E 112 124 9
E 112 143 24
E 113 115 1
E 114 115 1
E 114 117 2
E 115 116 1
E 115 118 2
E 116 119 2
E 116 132 13
E 117 118 1
E 117 126 10
E 118 119 1
E 118 128 10
E 119 130 10
E 119 135 13
E 120 121 1
E 120 122 1
E 121 123 1
E 121 126 6
E 122 123 1
E 122 127 6
E 123 129 6
E 124 125 1
E 124 138 12
E 125 127 4
E 125 140 12
E 126 128 1
E 126 129 1
E 128 130 1
E 130 145 13
E 131 133 1
E 132 133 1
E 132 135 2
E 133 134 1
E 133 136 2
E 134 137 2
E 135 136 1
E 135 145 10
E 136 137 1
E 136 146 10
E 137 148 10
E 137 149 11
E 138 140 1
E 139 141 1
E 140 144 5
E 141 142 1
E 141 153 24
E 142 143 1
E 145 146 1
E 145 147 1
E 146 148 1
E 148 151 11
E 149 151 10
E 150 152 6
E 153 154 1
E 154 155 1
E 156 157 1
E 158 159 1
E 160 161 1
E 161 162 1
E 163 165 5
E 164 166 5
E 167 168 1
E 168 169 1
E 170 171 1
E 172 173 1
E 174 175 1
E 175 176 1
E 177 181 5
E 178 179 1
E 178 192 10
E 179 180 1
E 179 193 10
E 180 194 10
E 181 182 1
E 182 183 1
E 182 184 1
E 183 185 1
E 183 186 1
E 184 186 1
E 185 187 1
E 185 188 2
E 186 187 1
E 186 202 10
E 187 190 2
E 187 205 10
E 188 189 1
E 188 190 1
E 189 191 1
E 189 214 11
E 190 210 10
E 190 211 10
E 191 201 6
E 191 216 11
E 192 193 1
E 192 197 3
E 193 194 1
E 193 199 3
E 194 196 1
E 194 200 3
E 195 197 1
E 196 198 1
E 196 203 3
E 197 199 1
E 198 206 3
E 199 200 1
E 199 204 2
E 200 203 1
E 200 207 2
E 201 208 2
E 201 225 11
E 202 205 1
E 202 212 3
E 203 206 1
E 203 226 11
E 204 207 1
E 205 211 2
E 206 209 1
E 206 227 11
E 207 218 4
E 208 210 1
E 209 212 1
E 209 229 11
E 210 213 1
E 210 228 10
E 211 214 1
E 211 217 2
E 212 218 2
E 212 219 3
E 213 215 1
E 213 230 10
E 214 216 1
E 214 220 3
E 215 233 10
E 215 244 13
E 216 222 3
E 216 225 6
E 217 219 1
E 217 234 10
E 218 223 3
E 218 232 9
E 219 220 1
E 219 223 2
E 220 222 1
E 220 247 11
E 221 224 1
E 222 231 6
E 222 250 11
E 223 237 8
E 223 242 9
E 225 228 2
E 225 231 3
E 226 227 1
E 226 243 6
E 227 229 1
E 227 248 6
E 228 230 1
E 228 234 2
E 229 232 1
E 229 251 6
E 230 233 1
E 230 236 2
E 231 237 2
E 232 242 3
E 232 254 6
E 233 240 2
E 233 265 14
E 234 236 1
E 235 238 1
E 235 262 11
E 236 240 1
E 236 241 1
E 237 246 2
E 237 258 9
E 238 243 1
E 238 280 17
E 239 244 1
E 240 245 1
E 242 247 1
E 242 256 6
E 243 248 1
E 243 264 11
E 244 249 1
E 244 269 12
E 245 255 4
E 245 270 12
E 246 253 2
E 246 263 9
E 247 250 1
E 247 257 6
E 248 251 1
E 249 252 1
E 249 265 10
E 250 258 6
E 250 259 6
E 251 254 1
E 251 271 11
E 252 268 10
E 252 272 11
E 253 266 9
E 254 256 3
E 254 261 6
E 255 269 8
E 255 291 18
E 256 257 1
E 256 267 6
E 257 259 1
E 257 284 11
E 258 263 2
E 258 274 6
E 259 274 6
E 259 286 11
E 260 262 1
E 260 276 6
E 261 267 3
E 261 275 5
E 262 264 2
E 262 278 6
E 263 266 2
E 263 279 6
E 264 271 2
E 264 282 6
E 265 268 1
E 265 273 2
E 266 270 1
E 266 283 6
E 267 281 5
E 267 313 24
E 268 277 2
E 269 273 1
E 270 285 6
E 271 275 1
E 271 287 6
E 273 277 1
E 274 279 2
E 274 296 11
E 275 281 3
E 275 288 6
E 276 278 1
E 276 289 7
E 278 280 1
E 278 290 7
E 279 283 2
E 279 309 17
E 280 282 1
E 280 293 7
E 281 284 1
E 281 292 6
E 282 287 2
E 282 295 7
E 283 285 1
E 283 311 17
E 284 286 1
E 284 294 6
E 285 291 4
E 285 314 17
E 286 296 6
E 286 297 6
E 287 288 1
E 287 298 7
E 288 292 3
E 288 300 7
E 289 290 1
E 289 301 6
E 290 293 1
E 290 302 6
E 291 313 13
E 291 323 17
E 292 294 1
E 292 303 7
E 293 295 1
E 294 297 1
E 294 306 7
E 295 298 2
E 295 304 6
E 296 305 6
E 296 325 16
E 297 305 6
E 297 307 7
E 298 300 1
E 298 308 6
E 299 343 24
E 300 303 3
E 300 310 6
E 301 302 1
E 302 304 2
E 302 354 29
E 303 306 1
E 303 315 6
E 304 308 2
E 304 312 5
E 305 309 2
E 305 319 7
E 306 307 1
E 306 317 6
E 307 319 6
E 307 320 6
E 308 310 1
E 308 318 5
E 309 311 2
E 309 324 7
E 310 315 3
E 310 321 5
E 311 314 1
E 311 327 7
E 312 318 2
E 312 356 24
E 313 316 1
E 313 325 5
E 314 323 4
E 314 330 7
E 315 317 1
E 315 326 5
E 317 320 1
E 317 328 5
E 318 321 1
E 318 361 24
E 319 324 2
E 319 332 6
E 320 331 5
E 320 332 6
E 321 326 3
E 321 364 24
E 322 338 10
E 323 334 7
E 323 335 7
E 324 327 2
E 324 333 6
E 325 334 6
E 326 328 1
E 326 342 9
E 327 330 1
E 327 337 6
E 328 331 1
E 328 371 24
E 330 335 4
E 330 339 6
E 331 340 6
E 331 374 24
E 332 333 2
E 332 340 5
E 333 337 2
E 334 336 1
E 335 397 35
E 337 339 1
E 338 341 1
E 338 345 5
E 339 346 5
E 340 346 5
E 341 343 1
E 341 347 5
E 342 370 15
E 343 344 1
E 343 349 5
E 344 352 5
E 345 347 1
E 345 358 6
E 346 369 11
E 346 392 24
E 347 349 1
E 347 359 6
E 348 355 3
E 349 352 1
E 349 363 6
E 350 358 4
E 350 366 7
E 351 353 1
E 352 365 6
E 353 366 6
E 353 367 6
E 354 356 2
E 354 357 2
E 355 357 1
E 355 379 10
E 356 361 2
E 356 362 2
E 357 362 2
E 358 359 1
E 358 372 7
E 359 363 1
E 359 376 7
E 361 364 1
E 361 368 2
E 362 368 2
E 362 381 10
E 363 365 1
E 364 370 3
E 365 380 7
E 366 372 4
E 366 398 20
E 367 377 5
E 367 387 13
E 368 382 10
E 369 383 9
E 370 371 1
E 370 375 2
E 371 374 1
E 371 378 2
E 372 376 1
E 372 401 20
E 373 377 1
E 373 388 9
E 375 378 1
E 375 390 10
E 376 380 2
E 377 391 10
E 378 393 10
E 380 387 6
E 381 382 2
E 382 384 1
E 383 385 1
E 383 406 15
E 384 389 2
E 384 390 3
E 385 388 1
E 385 408 15
E 386 395 5
E 387 407 14
E 388 391 2
E 388 411 15
E 390 393 1
E 391 398 5
E 392 395 2
E 392 397 4
E 393 394 1
E 394 396 2
E 395 409 10
E 396 404 6
E 397 399 3
E 398 401 4
E 398 419 15
E 399 400 1
E 399 403 2
E 400 402 1
E 400 405 2
E 401 407 3
E 401 425 15
E 402 406 2
E 403 405 1
E 403 418 10
E 405 420 10
E 406 408 1
E 406 412 2
E 407 410 1
E 407 428 15
E 408 411 1
E 408 414 2
E 410 413 1
E 410 429 15
E 411 415 2
E 412 414 1
E 412 423 10
E 413 430 15
E 414 415 1
E 414 426 10
E 415 416 2
E 415 427 10
E 416 422 5
E 418 420 1
E 419 422 2
E 419 425 4
E 420 421 1
E 421 423 2
E 421 424 2
E 422 434 10
E 423 426 1
E 424 432 6
E 425 428 3
E 426 427 1
E 428 429 1
E 428 431 2
E 429 430 1
E 429 433 2
E 431 433 1
E 431 436 10
E 433 437 10
E 436 437 1
E 1 438 100000
E 2 438 100000
E 3 438 100000
E 4 439 100000
E 5 439 100000
E 6 439 100000
E 7 440 100000
E 8 440 100000
E 9 440 100000
E 10 441 100000
E 11 441 100000
E 12 441 100000
E 13 442 100000
E 14 442 100000
E 15 442 100000
E 16 443 100000
E 17 443 100000
E 18 443 100000
E 19 444 100000
E 20 444 100000
E 21 445 100000
E 22 445 100000
E 23 446 100000
E 24 446 100000
E 25 447 100000
E 26 447 100000
E 27 448 100000
E 28 448 100000
E 29 448 100000
E 30 448 100000
E 31 449 100000
E 32 449 100000
E 33 449 100000
E 34 449 100000
E 35 450 100000
E 36 450 100000
E 37 450 100000
E 38 450 100000
E 39 451 100000
E 40 451 100000
E 41 451 100000
E 42 451 100000
E 43 452 100000
E 44 452 100000
E 45 452 100000
E 46 452 100000
E 47 453 100000
E 48 453 100000
E 49 453 100000
E 50 453 100000
E 51 454 100000
E 52 454 100000
E 53 455 100000
E 54 455 100000
E 55 456 100000
E 56 456 100000
E 57 456 100000
E 58 456 100000
E 59 456 100000
E 60 456 100000
E 61 457 100000
E 62 457 100000
E 63 457 100000
E 64 457 100000
E 65 457 100000
E 66 457 100000
E 67 458 100000
E 68 458 100000
E 69 458 100000
E 70 458 100000
E 71 458 100000
E 72 458 100000
E 73 459 100000
E 74 459 100000
E 75 459 100000
E 76 459 100000
E 77 459 100000
E 78 460 100000
E 79 460 100000
E 80 461 100000
E 81 461 100000
E 82 462 100000
E 83 462 100000
E 84 462 100000
E 85 462 100000
E 86 463 100000
E 87 463 100000
E 88 463 100000
E 89 463 100000
E 90 464 100000
E 91 464 100000
E 92 464 100000
E 93 465 100000
E 94 465 100000
E 95 466 100000
E 96 466 100000
E 97 467 100000
E 98 450 100000
E 99 450 100000
E 100 451 100000
E 101 456 100000
E 102 456 100000
E 103 457 100000
E 104 457 100000
E 105 458 100000
E 106 458 100000
E 107 459 100000
E 108 459 100000
END

SECTION Terminals
Terminals 30
T 438
T 439
T 440
T 441
T 442
T 443
T 444
T 445
T 446
T 447
T 448
T 449
T 450
T 451
T 452
T 453
T 454
T 455
T 456
T 457
T 458
T 459
T 460
T 461
T 462
T 463
T 464
T 465
T 466
T 467
END

SECTION Tree Decomposition
c We do not guarantee that this tree decomposition has minimum width.
s td 393 25 467
b 1 467 97
b 2 97 413
b 3 92 91 464
b 4 455 53 54
b 5 466 95 96
b 6 342 326 370
b 7 91 464 151
b 8 461 80 81
b 9 95 96 109
b 10 413 430 410
b 11 464 90 151
b 12 445 22 21
b 13 446 24 23
b 14 447 25 26
b 15 444 19 20
b 16 454 51 52
b 17 460 79 78
b 18 465 93 94
b 19 37 221 450
b 20 53 178 54
b 21 48 453 47 50
b 22 79 144 150 78
b 23 3 438 437 2
b 24 439 5 4 6
b 25 442 15 13 14
b 26 443 17 18 16
b 27 90 149 151 134
b 28 149 151 137 134
b 29 151 137 134 148
b 30 96 109 94 139
b 31 109 93 94 139
b 32 430 410 429 1
b 33 440 8 9 7
b 34 441 11 12 10
b 35 438 437 1 2
b 36 453 47 50 49
b 37 410 429 1 407
b 38 137 134 148 136
b 39 144 150 140 78
b 40 25 348 26 23
b 41 348 26 355 23
b 42 26 379 355 23
b 43 379 355 24 23
b 44 355 24 357 23
b 45 150 140 78 152
b 46 24 357 23 381
b 47 178 54 192 179
b 48 40 39 451 252
b 49 17 18 16 381
b 50 221 98 224 450
b 51 54 192 179 195
b 52 80 81 127 123
b 53 81 127 140 123
b 54 85 462 148 84
b 55 47 50 299 272 49
b 56 424 9 421 432
b 57 350 358 366 32
b 58 352 344 349 365
b 59 363 349 365 359
b 60 86 113 114 463
b 61 111 117 121 110
b 62 427 426 415 20
b 63 377 391 373 367
b 64 380 376 387 365
b 65 404 396 22 12
b 66 383 385 369 406
b 67 389 18 384 14
b 68 399 400 403 397
b 69 402 400 7 406
b 70 417 11 8 12
b 71 423 426 412 421
b 72 435 2 5 6
b 73 122 127 120 123
b 74 124 125 138 112
b 75 129 88 126 123
b 76 131 83 133 82
b 77 141 139 142 153
b 78 147 84 145 89
b 79 156 157 74 76
b 80 158 159 77 75
b 81 163 165 69 71
b 82 164 166 70 72
b 83 170 171 63 65
b 84 172 173 64 66
b 85 177 181 57 59
b 86 180 179 194 51
b 87 189 191 214 188
b 88 196 198 194 203
b 89 201 208 191 225
b 90 205 187 202 211
b 91 217 219 211 234
b 92 239 39 244 44
b 93 241 236 45 46
b 94 245 255 270 240
b 95 248 251 227 243
b 96 253 246 266 46
b 97 260 276 36 262
b 98 261 254 275 267
b 99 268 265 252 277
b 100 289 276 290 301
b 101 293 290 280 295
b 102 312 318 304 356
b 103 333 337 324 332
b 104 338 341 345 322
b 105 429 1 433 428 407
b 106 357 23 354 362 381
b 107 98 224 450 35 195
b 108 113 114 87 115 463
b 109 23 354 362 301 381
b 110 437 1 433 436 2
b 111 114 87 115 463 117
b 112 125 138 127 140 112
b 113 138 127 140 78 112
b 114 192 179 193 197 195
b 115 50 299 272 49 344
b 116 299 272 343 49 344
b 117 272 343 49 344 252
b 118 83 134 133 462 82
b 119 93 94 110 112 139
b 120 94 110 112 139 142
b 121 376 387 365 359 372
b 122 396 394 15 22 12
b 123 159 77 75 68 72
b 124 157 74 76 67 71
b 125 165 69 71 61 65
b 126 171 63 65 55 59
b 127 173 64 66 56 60
b 128 166 70 72 62 66
b 129 181 57 59 182 51
b 130 337 327 324 332 339
b 131 127 140 78 120 123 112
b 132 140 78 120 123 112 152
b 133 78 120 123 112 143 152
b 134 1 433 436 2 428 407
b 135 433 436 2 431 428 407
b 136 436 2 431 5 428 407
b 137 2 431 5 428 6 407
b 138 431 5 428 4 6 407
b 139 5 428 4 6 434 407
b 140 428 4 6 434 425 407
b 141 4 6 434 422 425 407
b 142 6 434 422 425 407 432
b 143 434 422 425 20 407 432
b 144 134 133 462 148 136 82
b 145 133 462 148 136 132 82
b 146 462 148 136 84 132 82
b 147 148 136 146 84 132 82
b 148 136 146 84 135 132 82
b 149 146 84 145 135 132 82
b 150 84 145 135 132 82 89
b 151 145 135 132 82 130 89
b 152 135 132 82 119 130 89
b 153 132 82 116 119 130 89
b 154 82 116 119 130 87 89
b 155 116 119 130 87 115 89
b 156 119 130 118 87 115 89
b 157 130 118 87 115 89 128
b 158 118 87 115 89 128 117
b 159 87 115 89 463 128 117
b 160 89 463 128 88 117
b 161 128 88 126 117
b 162 88 126 117 123
b 163 126 117 121 123
b 164 117 121 123 110
b 165 121 120 123 110
b 166 120 123 110 112 143 152
b 167 110 112 143 152 139 142
b 168 143 152 139 142 73
b 169 152 139 142 73 77
b 170 452 43 45 44 46
b 171 107 142 73 154 459
b 172 42 100 451 277 322
b 173 208 191 210 43 225
b 174 58 176 456 102 185
b 175 255 270 291 240 269
b 176 354 362 301 356 302 381
b 177 362 301 356 302 368 381
b 178 343 49 344 349 341 252
b 179 49 344 349 341 252 277
b 180 344 349 341 365 252 277
b 181 394 15 22 12 13 393
b 182 15 22 12 13 14 393
b 183 179 193 197 195 194 51
b 184 193 197 199 195 194 51
b 185 197 199 35 195 194 51
b 186 139 142 73 153 77 76
b 187 142 73 153 154 459 77 76
b 188 73 153 155 154 459 77 76
b 189 153 155 154 459 77 74 76
b 190 155 154 459 77 75 74 76
b 191 154 459 108 77 75 74 76
b 192 108 77 75 74 76 105
b 193 224 450 35 195 99 36
b 194 450 35 195 38 99 36
b 195 18 382 384 16 381 14
b 196 382 384 368 16 381 14
b 197 384 390 368 16 381 14
b 198 77 75 74 76 68 105 72
b 199 74 76 67 68 105 71 72
b 200 67 68 105 160 458 71 72
b 201 68 105 160 162 458 71 72
b 202 105 160 162 161 458 71 72
b 203 160 162 161 458 69 71 72
b 204 162 161 458 69 71 70 72
b 205 161 458 106 69 71 70 72
b 206 106 69 71 70 72 103
b 207 69 71 70 72 61 103 65
b 208 70 72 61 62 103 65 66
b 209 61 62 103 167 457 65 66
b 210 62 103 167 169 457 65 66
b 211 103 167 169 168 457 65 66
b 212 167 169 168 457 63 65 66
b 213 169 168 457 63 65 64 66
b 214 168 457 104 63 65 64 66
b 215 104 63 65 64 66 101
b 216 63 65 64 66 55 101 59
b 217 64 66 56 55 101 60 59
b 218 56 55 101 176 456 60 59
b 219 55 101 174 176 456 60 59
b 220 101 174 175 176 456 60 59
b 221 174 175 176 456 60 57 59
b 222 175 176 456 60 102 57 59
b 223 176 456 60 102 185 57 59
b 224 60 102 185 57 59 188
b 225 102 185 57 59 183 188
b 226 185 57 59 183 187 188
b 227 57 59 182 183 187 188 51
b 228 182 183 184 187 188 51
b 229 183 184 186 187 188 51
b 230 184 186 187 188 51 52
b 231 186 187 202 188 51 52
b 232 420 405 418 9 421
b 233 218 207 232 212 223
b 234 310 308 321 300 315
b 235 364 361 321 16 370
b 236 220 214 219 222 247
b 237 353 366 34 367 351
b 238 419 422 425 19 398
b 239 288 292 275 287 300
b 240 216 191 214 225 222
b 241 408 414 411 385 406
b 242 360 30 28 29 27
b 243 297 294 286 305 307
b 244 448 30 28 29 27
b 245 209 206 229 52 212
b 246 378 375 371 13 393
b 247 336 32 27 33 334
b 248 309 324 311 279 305
b 249 346 340 392 369 339
b 250 395 386 10 409 392
b 251 401 425 372 398 407
b 252 316 41 31 33 313
b 253 330 327 314 335 339
b 254 320 317 307 331 332
b 255 283 285 311 266 279
b 256 273 100 265 269 277
b 257 284 281 294 257 286
b 258 296 325 274 286 305
b 259 298 308 287 295 300
b 260 328 326 371 317 331
b 261 264 282 243 271 262
b 262 388 391 411 373 385
b 263 233 265 215 230 240
b 264 256 242 254 267 257
b 265 347 349 341 359 345
b 266 349 341 365 359 345 252 277
b 267 341 365 359 345 252 277 322
b 268 303 306 292 300 315
b 269 226 203 38 227 243
b 270 228 210 234 225 230
b 271 329 34 32 31 33
b 272 190 187 188 211 210
b 273 187 202 188 211 210 51 52
b 274 202 188 211 210 51 52 212
b 275 449 34 32 31 33
b 276 200 199 194 203 207
b 277 204 199 35 99 207
b 278 213 210 43 215 230
b 279 237 231 246 258 223
b 280 238 235 38 243 280
b 281 250 259 258 222 247
b 282 374 371 13 21 331
b 283 249 39 244 265 252
b 284 39 244 451 265 44 252
b 285 263 246 258 266 279
b 286 278 276 290 262 280
b 287 276 290 301 36 262 280
b 288 319 324 305 307 332
b 289 323 291 314 334 335
b 290 416 422 19 415 20
b 291 426 412 414 415 20 421
b 292 400 403 405 397 7 406
b 293 270 285 291 266 240 269
b 294 198 194 203 206 51 52
b 295 11 8 418 12 10 409
b 296 244 451 265 44 215 269 252
b 297 412 414 415 20 7 406 421
b 298 387 365 359 367 372 407
b 299 236 234 45 46 230 240
b 300 318 304 361 356 308 321
b 301 390 375 368 16 381 14 393
b 302 8 418 9 12 10 409 7
b 303 304 361 356 302 308 321 295
b 304 403 405 418 397 10 7 406
b 305 405 418 9 397 10 7 406 421
b 306 418 9 397 12 10 409 7 406 421
b 307 9 397 12 10 409 7 406 421 432
b 308 235 38 99 243 36 262 280
b 309 290 301 302 36 262 280 295
b 310 327 324 311 314 332 335 339
b 311 414 415 20 411 385 7 406 421
b 312 358 359 345 366 32 372
b 313 251 227 229 243 271 254
b 314 30 28 29 373 367 351 27
b 315 191 214 188 210 43 225 222
b 316 386 22 10 409 392 13 21
b 317 259 258 274 222 247 257 286
b 318 306 292 294 300 315 317 307
b 319 326 321 370 371 315 317 331
b 320 422 425 19 415 20 398 407 432
b 321 425 19 415 20 372 398 407 432
b 322 28 29 373 385 367 351 27 369
b 323 199 35 195 194 203 99 207 51
b 324 35 195 194 203 38 99 207 36 51
b 325 194 203 38 99 206 207 36 51 52
b 326 391 19 411 373 385 367 398
b 327 242 232 254 267 223 247 257
b 328 281 292 294 275 267 257 286
b 329 282 243 271 287 262 280 295
b 330 203 38 99 206 227 207 243 36 51 52
b 331 231 246 258 225 45 222 223
b 332 325 274 33 286 305 313 334
b 333 340 392 369 21 331 332 339
b 334 285 291 311 314 266 279 240 269
b 335 22 12 10 409 392 13 14 21 393
b 336 38 99 206 227 207 243 36 262 280 51 52
b 337 206 227 229 207 243 36 262 280 51 52 212
b 338 100 451 265 41 269 31 277 322
b 339 451 265 41 44 215 269 31 252 277 322
b 340 29 373 385 367 351 27 369 334 339
b 341 301 356 302 368 381 36 262 280 295
b 342 214 219 188 211 210 43 225 222 247
b 343 365 359 345 367 372 407 252 277 322
b 344 359 345 366 32 367 372 407 252 277 322
b 345 345 366 34 32 367 372 407 252 277 322
b 346 366 34 32 367 351 372 398 407 252 277 322
b 347 324 311 314 279 305 307 332 335 339
b 348 361 356 302 308 321 368 16 370 295
b 349 375 368 16 370 381 371 13 14 393
b 350 227 229 207 243 271 254 36 262 280 51 52 212
b 351 229 207 243 271 232 254 36 262 280 51 52 212
b 352 207 243 271 232 254 36 262 280 51 52 212 223
b 353 246 258 225 45 222 266 279 46 223
b 354 397 12 10 409 392 7 406 421 432 335
b 355 265 41 44 215 230 240 269 31 252 277 322
b 356 34 32 367 351 372 398 407 31 33 252 277 322
b 357 243 271 232 254 287 36 262 280 295 51 52 212 223
b 358 271 232 254 275 287 36 262 280 295 51 52 212 223
b 359 219 188 211 210 43 234 225 222 212 223 247
b 360 188 211 210 43 234 225 222 51 52 212 223 247
b 361 19 415 20 411 373 385 367 372 398 407 432
b 362 210 43 234 225 222 215 230 51 52 212 223 247
b 363 32 367 351 372 398 407 27 31 33 252 277 322 334
b 364 356 302 308 321 368 16 370 381 36 262 280 295
b 365 415 20 411 373 385 367 372 398 407 7 406 421 432
b 366 291 311 314 266 279 240 269 313 334 335
b 367 311 314 266 279 240 269 305 307 313 332 334 335 339
b 368 43 234 225 45 222 44 46 215 230 51 52 212 223 247
b 369 234 225 45 222 44 46 215 230 240 51 52 212 223 247
b 370 258 274 225 45 222 266 279 46 223 247 257 286
b 371 12 10 409 392 7 406 421 432 13 14 21 335 393
b 372 308 321 368 16 370 381 287 36 262 280 295 300 315
b 373 292 294 275 267 287 300 315 317 257 286 307
b 374 294 275 267 287 300 315 317 257 286 305 307
b 375 321 368 16 370 381 371 287 36 262 280 295 300 315 317 331
b 376 41 44 46 215 230 240 269 31 33 252 277 313 322
b 377 373 385 367 351 372 398 407 27 7 369 406 421 432 334 339
b 378 232 254 275 267 287 36 262 280 295 51 52 212 223 247 257
b 379 368 16 370 381 371 287 36 262 280 295 300 315 317 13 14 331 393
b 380 371 287 36 262 280 295 300 315 317 13 14 21 331 393
b 381 392 7 369 406 421 432 13 14 21 331 332 335 339 393
b 382 274 225 45 222 266 279 46 33 223 247 257 286 305 313 334
b 383 367 351 372 398 407 27 7 369 406 421 432 31 33 252 277 322 334 339
b 384 27 7 369 406 421 432 31 33 252 277 322 334 335 339
b 385 7 369 406 421 432 13 14 21 31 33 252 277 322 331 332 334 335 339 393
b 386 275 267 287 36 262 280 295 300 315 317 51 52 212 223 247 257 286 305 307
b 387 267 287 36 262 280 295 300 315 317 51 52 212 223 247 257 286 305 307 313
b 388 225 45 222 266 279 44 46 215 230 240 33 51 52 212 223 247 257 286 305 313 334
b 389 266 279 44 46 215 230 240 269 33 51 52 212 223 247 257 286 305 307 313 332 334 335 339
b 390 44 46 215 230 240 269 31 33 51 52 212 223 247 252 257 277 286 305 307 313 322 332 334 335 339
b 391 287 36 262 280 295 300 315 317 13 14 21 51 52 212 223 247 257 286 305 307 313 331 393
b 392 317 13 14 21 51 52 212 223 247 257 286 305 307 313 331 332 393
b 393 13 14 21 31 33 51 52 212 223 247 252 257 277 286 305 307 313 322 331 332 334 335 339 393
1 2
2 10
10 32
32 37
37 105
105 134
134 135
135 136
136 137
137 138
138 139
139 140
140 141
141 142
142 143
143 320
320 321
321 361
361 365
365 377
377 383
383 384
384 385
385 393
393 390
390 389
389 388
393 392
392 391
391 387
387 386
388 382
391 380
386 378
380 379
379 375
385 381
388 369
369 368
375 372
378 358
358 357
383 363
390 376
382 370
368 362
357 352
363 356
352 351
351 350
389 367
386 374
381 371
372 364
362 360
376 355
356 346
350 337
374 373
360 359
367 366
371 354
355 339
346 345
337 336
345 344
336 330
379 349
377 340
370 353
367 347
371 335
364 341
364 348
359 342
354 307
344 343
330 325
307 306
365 311
366 334
339 338
340 322
325 324
306 305
324 323
382 332
361 326
378 327
375 319
381 333
357 329
370 317
360 274
373 328
373 318
339 296
336 308
349 301
353 331
347 310
335 316
341 309
348 303
342 315
343 267
306 302
311 297
322 314
305 304
274 273
267 266
369 299
350 313
344 312
335 182
341 177
343 298
325 294
334 293
324 194
323 185
296 284
301 197
309 287
303 300
302 295
297 291
182 181
177 176
304 292
273 231
266 180
194 193
185 184
197 196
231 230
180 179
184 183
196 195
230 229
229 228
228 227
227 226
226 225
225 224
224 223
223 222
222 221
221 220
220 219
219 218
218 217
217 216
216 215
215 214
214 213
213 212
212 211
211 210
210 209
209 208
208 207
207 206
206 205
205 204
204 203
203 202
202 201
201 200
200 199
199 198
198 192
192 191
191 190
190 189
189 188
188 187
187 186
179 178
320 290
217 127
216 126
227 129
320 238
183 114
207 125
199 124
198 123
223 174
208 128
187 171
186 169
178 117
321 251
169 168
117 116
168 167
116 115
167 120
167 166
166 133
133 132
132 131
115 55
120 119
131 113
113 112
380 282
368 170
372 234
372 259
363 247
376 252
362 278
362 270
352 233
311 241
356 271
356 275
314 244
244 242
374 243
355 263
346 237
337 245
373 239
366 289
330 269
349 246
134 110
353 285
347 248
347 288
348 235
342 236
334 255
338 172
338 256
305 232
323 277
323 276
332 258
326 262
327 264
319 260
333 249
329 261
317 281
328 257
318 268
308 280
331 279
310 130
310 253
316 250
315 173
315 240
298 121
273 272
266 265
293 175
284 283
287 286
181 122
176 109
109 106
193 107
392 254
107 50
125 81
186 77
127 84
126 83
129 85
124 79
114 51
123 80
128 82
166 165
165 164
132 45
55 36
36 21
131 73
131 53
266 59
183 86
195 49
110 35
195 67
130 103
45 39
173 89
121 64
175 94
122 65
106 46
51 47
164 61
164 163
163 162
53 52
39 22
46 44
49 26
35 23
162 75
162 161
44 43
161 160
160 159
159 158
158 157
157 156
156 155
155 154
154 153
153 152
152 151
151 150
150 149
149 148
148 147
147 146
146 145
145 144
159 111
144 118
111 108
43 42
42 41
41 40
150 78
144 38
38 29
29 28
146 54
118 76
108 60
28 27
273 90
377 66
112 74
119 31
31 30
137 72
138 24
359 91
313 95
355 99
353 96
307 56
299 93
326 63
309 101
315 87
378 98
267 104
302 33
312 57
182 25
294 88
284 48
284 92
287 97
287 100
300 102
295 34
295 70
291 62
291 71
292 68
292 69
180 58
320 15
391 16
50 19
22 17
44 13
27 11
11 7
7 3
119 18
30 9
9 5
40 14
52 8
335 12
47 20
20 4
319 6
END

EOF
